100 5
25 200
10
30
10
10
10
20
20
20
10
10
10
20
30
10
40
40
20
20
10
10
20
20
10
10
40
10
10
20
10
10
20
30
40
20
10
10
20
30
20
10
10
20
10
10
10
30
10
10
10
10
10
10
20
40
10
30
40
30
10
20
10
20
50
10
10
10
10
10
10
30
20
10
10
50
20
10
10
20
10
10
30
20
10
20
30
10
20
30
10
10
10
20
40
10
30
10
30
20
10
20
40 50 0 1236 0 0
45 68 760 1120 90 2
45 70 668 1028 90 1
42 66 16 376 90 2
42 68 575 935 90 2
42 65 15 375 90 3
40 69 482 842 90 2
40 66 18 378 90 1
38 68 110 470 90 2
38 70 390 750 90 3
35 66 204 564 90 2
35 69 297 657 90 3
25 85 507 867 90 3
22 75 30 390 90 1
22 85 414 774 90 1
20 80 227 587 90 2
20 85 322 682 90 3
18 75 33 393 90 1
15 75 37 397 90 2
15 80 132 492 90 1
30 50 10 370 90 1
30 52 760 1120 90 3
28 52 668 1028 90 1
28 55 575 935 90 3
25 50 15 375 90 1
25 52 17 377 90 1
25 55 482 842 90 3
23 52 109 469 90 1
23 55 390 750 90 1
20 50 202 562 90 2
20 55 297 657 90 2
10 35 39 399 90 3
10 40 31 391 90 2
8 40 33 393 90 1
8 45 604 964 90 3
5 35 134 494 90 3
5 45 511 871 90 3
2 40 229 589 90 2
0 40 321 681 90 2
0 45 416 776 90 1
35 30 113 473 90 3
35 32 21 381 90 1
33 32 19 379 90 1
33 35 16 376 90 1
32 30 206 566 90 3
30 30 391 751 90 2
30 32 299 659 90 2
30 35 767 1127 90 1
28 30 483 843 90 1
28 35 766 1126 90 1
26 32 668 1028 90 3
25 30 576 936 90 2
25 35 761 1121 90 3
44 5 137 497 90 1
42 10 42 402 90 3
42 15 35 395 90 2
40 5 231 591 90 2
40 15 35 395 90 2
38 5 323 683 90 2
38 15 516 876 90 3
35 5 416 776 90 2
50 30 391 751 90 3
50 35 110 470 90 3
50 40 15 375 90 2
48 30 483 843 90 1
48 40 12 372 90 1
47 35 671 1031 90 2
47 40 12 372 90 1
45 30 576 936 90 1
45 35 763 1123 90 1
95 30 242 602 90 3
95 35 147 507 90 2
53 30 298 658 90 2
92 30 335 695 90 3
53 35 203 563 90 1
45 65 770 1130 90 3
90 35 52 412 90 1
88 30 429 789 90 3
88 35 50 410 90 1
87 30 520 880 90 1
85 25 615 975 90 3
85 35 47 407 90 3
75 55 215 575 90 2
72 55 122 482 90 2
70 58 311 671 90 1
68 60 404 764 90 1
66 55 26 386 90 2
65 55 25 385 90 3
65 60 497 857 90 1
63 58 590 950 90 2
60 55 20 380 90 3
60 60 683 1043 90 3
67 85 225 585 90 3
65 85 317 677 90 1
65 82 131 491 90 1
62 80 38 398 90 3
60 80 36 396 90 1
60 85 412 772 90 3
58 75 30 390 90 1
55 80 602 962 90 1
55 85 507 867 90 3
52 58 0 1236 45 4
70 26 0 1236 45 4
49 29 0 1236 45 4
9 60 0 1236 45 4
75 83 0 1236 45 4
1 0 0 0 0
0 0 0 0 0
1 0 0 0 0
1 0 0 0 0
1 0 0 0 0
1 0 0 0 0
0 0 0 0 0
1 0 0 0 0
1 0 0 0 0
1 0 0 0 0
1 0 0 0 0
0 0 0 1 0
0 0 0 0 0
0 0 0 0 0
0 0 0 1 0
0 0 0 1 0
0 0 0 0 0
0 0 0 1 0
0 0 0 0 0
0 0 0 0 0
0 0 0 1 0
0 0 0 0 0
0 0 0 1 0
0 0 0 0 0
0 0 0 0 0
0 0 0 1 0
0 0 0 0 0
0 0 0 0 0
0 0 0 1 0
0 0 0 1 0
0 0 0 1 0
0 0 0 1 0
0 0 0 0 0
0 0 0 1 0
0 0 0 1 0
0 0 0 1 0
0 0 0 1 0
0 0 0 1 0
0 0 0 0 0
0 0 1 0 0
0 0 0 0 0
0 0 0 0 0
0 0 0 0 0
0 0 1 0 0
0 0 1 0 0
0 0 1 0 0
0 0 0 0 0
0 0 0 0 0
0 0 0 0 0
0 0 1 0 0
0 0 1 0 0
0 0 1 0 0
0 0 0 0 0
0 0 1 0 0
0 0 1 0 0
0 0 1 0 0
0 0 1 0 0
0 0 1 0 0
0 0 1 0 0
0 0 1 0 0
0 0 1 0 0
0 0 1 0 0
0 0 1 0 0
0 0 0 0 0
0 0 0 0 0
0 0 1 0 0
0 0 0 0 0
0 0 0 0 0
0 0 0 0 0
0 1 0 0 0
0 1 0 0 0
0 0 1 0 0
0 1 0 0 0
0 0 0 0 0
1 0 0 0 0
0 0 0 0 0
0 1 0 0 0
0 0 0 0 0
0 0 0 0 0
0 1 0 0 0
0 1 0 0 0
1 0 0 0 0
1 0 0 0 0
0 0 0 0 0
0 0 0 0 0
1 0 0 0 0
1 0 0 0 0
0 0 0 0 0
1 0 0 0 0
1 0 0 0 0
1 0 0 0 0
0 0 0 0 1
0 0 0 0 0
0 0 0 0 0
0 0 0 0 1
0 0 0 0 0
0 0 0 0 1
0 0 0 0 0
0 0 0 0 0
0 0 0 0 1
